qbf_easy_train/easy_1550_SAT.qdimacs
p cnf 36 103
a 29 20 5 0
e 1 2 3 4 6 7 8 9 10 11 12 13 14 15 16 17 18 19 21 22 23 24 25 26 27 28 30 31 32 33 34 35 36 0
2 -3 -4 0
-2 3 -4 0
2 3 4 0
-2 -3 4 0
6 -4 0
6 5 0
4 -5 -6 0
-1 -6 -7 0
1 6 -7 0
-1 6 7 0
1 -6 7 0
9 6 0
9 8 0
-6 -8 -9 0
-11 -9 0
-11 -10 0
9 10 11 0
9 -8 -12 0
-9 8 -12 0
9 8 12 0
-9 -8 12 0
13 -11 0
13 -12 0
11 12 -13 0
-14 7 0
-14 -13 0
-7 13 14 0
-15 -8 0
-15 10 0
8 -10 15 0
16 4 0
16 -1 0
-4 1 -16 0
-17 3 0
-17 16 0
-3 -16 17 0
15 17 -18 0
-15 -17 -18 0
15 -17 18 0
-15 17 18 0
-20 2 0
-20 19 0
-2 -19 20 0
-21 -3 0
-21 -19 0
3 19 21 0
20 -21 -22 0
-20 21 -22 0
20 21 22 0
-20 -21 22 0
23 22 0
23 20 0
-22 -20 -23 0
6 21 -24 0
-6 -21 -24 0
6 -21 24 0
-6 21 24 0
25 23 0
25 -24 0
-23 24 -25 0
-26 -16 0
-26 -1 0
16 1 26 0
27 -20 0
27 -26 0
20 26 -27 0
-28 10 0
-28 -27 0
-10 27 28 0
29 20 -30 0
-29 -20 -30 0
29 -20 30 0
-29 20 30 0
31 -28 0
31 30 0
28 -30 -31 0
32 25 0
32 -31 0
-25 31 -32 0
-21 -16 -33 0
21 16 -33 0
-21 16 33 0
21 -16 33 0
-34 32 0
-34 -33 0
-32 33 34 0
35 18 0
35 34 0
-18 -34 -35 0
14 -35 -36 0
-14 35 -36 0
14 35 36 0
-14 -35 36 0
-15 13 21 0
4 -22 -14 0
17 -21 20 -25 -33 -31 -32 -28 0
-19 -13 7 2 0
16 -12 13 -18 -32 -17 34 0
28 -34 -25 -9 7 -36 20 0
14 23 18 11 0
1 8 -3 -5 0
21 -1 33 14 9 6 0
36 0
