sat_easy_train/easy_1550_SAT.dimacs
p cnf 106 351
-3 1 0
-3 2 0
-1 -2 3 0
-6 -4 0
-6 -5 0
4 5 6 0
-3 6 -7 0
3 -6 -7 0
-3 -6 7 0
3 6 7 0
11 -12 -13 0
-11 12 -13 0
11 12 13 0
-11 -12 13 0
-14 10 0
-14 13 0
-10 -13 14 0
-4 -1 -15 0
4 1 -15 0
-4 1 15 0
4 -1 15 0
-16 15 0
-16 -8 0
-15 8 16 0
-14 -16 -17 0
14 16 -17 0
-14 16 17 0
14 -16 17 0
-9 -17 -18 0
9 17 -18 0
-9 17 18 0
9 -17 18 0
19 8 0
19 18 0
-8 -18 -19 0
20 7 0
20 -19 0
-7 19 -20 0
23 21 0
23 -22 0
-21 22 -23 0
-24 -23 0
-24 10 0
23 -10 24 0
-20 24 -25 0
20 -24 -25 0
-20 -24 25 0
20 24 25 0
-11 26 -27 0
11 -26 -27 0
-11 -26 27 0
11 26 27 0
28 -4 0
28 -9 0
4 9 -28 0
29 -11 0
29 28 0
11 -28 -29 0
-27 29 -30 0
27 -29 -30 0
-27 -29 30 0
27 29 30 0
-32 -31 0
-32 11 0
31 -11 32 0
32 33 -34 0
-32 -33 -34 0
32 -33 34 0
-32 33 34 0
-35 34 0
-35 11 0
-34 -11 35 0
30 -35 -36 0
-30 35 -36 0
30 35 36 0
-30 -35 36 0
37 -11 0
37 -22 0
11 22 -37 0
-37 -31 -38 0
37 31 -38 0
-37 31 38 0
37 -31 38 0
39 -2 0
39 -10 0
2 10 -39 0
40 -28 0
40 39 0
28 -39 -40 0
-41 -40 0
-41 -2 0
40 2 41 0
42 -38 0
42 41 0
38 -41 -42 0
44 37 0
44 -13 0
-37 13 -44 0
16 44 -45 0
-16 -44 -45 0
16 -44 45 0
-16 44 45 0
-46 -43 0
-46 -45 0
43 45 46 0
-42 46 -47 0
42 -46 -47 0
-42 -46 47 0
42 46 47 0
-49 -4 0
-49 -48 0
4 48 49 0
-50 49 0
-50 -1 0
-49 1 50 0
-51 -47 0
-51 50 0
47 -50 51 0
-52 -32 0
-52 40 0
32 -40 52 0
53 -51 0
53 52 0
51 -52 -53 0
-36 53 -54 0
36 -53 -54 0
-36 -53 54 0
36 53 54 0
55 25 0
55 54 0
-25 -54 -55 0
-56 33 0
-56 -5 0
-33 5 56 0
-31 56 -57 0
31 -56 -57 0
-31 -56 57 0
31 56 57 0
58 -15 0
58 57 0
15 -57 -58 0
4 -32 -59 0
-4 32 -59 0
4 32 59 0
-4 -32 59 0
-58 -59 -60 0
58 59 -60 0
-58 59 60 0
58 -59 60 0
-61 4 0
-61 -57 0
-4 57 61 0
62 -28 0
62 -61 0
28 61 -62 0
62 4 -63 0
-62 -4 -63 0
62 -4 63 0
-62 4 63 0
64 -60 0
64 -63 0
60 63 -64 0
-2 23 -65 0
2 -23 -65 0
-2 -23 65 0
2 23 65 0
-66 65 0
-66 16 0
-65 -16 66 0
66 4 -67 0
-66 -4 -67 0
66 -4 67 0
-66 4 67 0
67 32 -68 0
-67 -32 -68 0
67 -32 68 0
-67 32 68 0
-69 -64 0
-69 68 0
64 -68 69 0
22 1 -70 0
-22 -1 -70 0
22 -1 70 0
-22 1 70 0
-71 16 0
-71 -57 0
-16 57 71 0
72 -70 0
72 71 0
70 -71 -72 0
33 -17 -73 0
-33 17 -73 0
33 17 73 0
-33 -17 73 0
5 39 -74 0
-5 -39 -74 0
5 -39 74 0
-5 39 74 0
75 16 0
75 -74 0
-16 74 -75 0
-14 -75 -76 0
14 75 -76 0
-14 75 76 0
14 -75 76 0
-77 -15 0
-77 32 0
15 -32 77 0
-78 77 0
-78 -28 0
-77 28 78 0
76 -78 -79 0
-76 78 -79 0
76 78 79 0
-76 -78 79 0
-80 -73 0
-80 -79 0
73 79 80 0
-1 28 -81 0
1 -28 -81 0
-1 -28 81 0
1 28 81 0
82 -81 0
82 -75 0
81 75 -82 0
-83 82 0
-83 -37 0
-82 37 83 0
-12 -83 -84 0
12 83 -84 0
-12 83 84 0
12 -83 84 0
80 -84 -85 0
-80 84 -85 0
80 84 85 0
-80 -84 85 0
-72 -85 -86 0
72 85 -86 0
-72 85 86 0
72 -85 86 0
87 -69 0
87 86 0
69 -86 -87 0
-88 -65 0
-88 11 0
65 -11 88 0
89 40 0
89 -66 0
-40 66 -89 0
90 -89 0
90 81 0
89 -81 -90 0
91 49 0
91 44 0
-49 -44 -91 0
-92 22 0
-92 -39 0
-22 39 92 0
-16 89 -93 0
16 -89 -93 0
-16 -89 93 0
16 89 93 0
-93 -61 -94 0
93 61 -94 0
-93 61 94 0
93 -61 94 0
-95 -92 0
-95 94 0
92 -94 95 0
-96 -91 0
-96 95 0
91 -95 96 0
-90 -96 -97 0
90 96 -97 0
-90 96 97 0
90 -96 97 0
98 -88 0
98 -97 0
88 97 -98 0
99 87 0
99 -98 0
-87 98 -99 0
100 -55 0
100 -99 0
55 99 -100 0
101 -28 0
101 -26 0
28 26 -101 0
102 -2 0
102 -10 0
2 10 -102 0
-11 49 -103 0
11 -49 -103 0
-11 -49 103 0
11 49 103 0
104 -102 0
104 103 0
102 -103 -104 0
105 101 0
105 104 0
-101 -104 -105 0
-106 100 0
-106 -105 0
-100 105 106 0
105 -85 0
8 -75 0
-11 -85 13 0
-80 -8 5 98 63 0
44 20 69 87 72 -14 0
-24 -14 0
8 94 27 -98 0
62 92 -7 -41 88 0
-21 -49 47 48 0
-103 94 -105 0
47 -8 14 -31 0
-87 16 67 91 54 9 0
-65 -71 -36 0
84 42 -71 0
70 -46 84 -81 0
-1 -79 0
-57 81 0
19 -60 48 0
-97 92 45 9 72 -95 0
64 93 39 -91 0
-87 -71 0
-82 103 -102 29 104 0
42 38 -26 -22 0
52 -96 -94 0
-35 69 -42 45 0
56 -3 88 -95 0
-17 -38 95 0
67 -97 -6 0
-99 -22 -77 100 0
36 -87 100 28 0
-11 -28 93 -53 0
37 -49 0
50 -45 0
-103 39 94 -34 -25 0
-22 -35 0
-90 62 -56 -61 0
42 95 -94 18 27 0
-103 18 0
58 -18 -68 -54 -14 -60 0
-13 104 -27 0
11 -100 -80 47 -15 -33 0
28 -64 -86 40 95 0
-99 -16 0
-92 -39 103 -36 91 -15 0
-76 -34 7 -5 101 0
48 92 0
106 0
